
Value of objective function: 0.03066738

Actual values of the variables:
pL1_div_from_law        0.0306674
comp_pos0                       0
comp_neg0                       0
comp_pos1                       0
comp_neg1                       0
comp_pos2                       0
comp_neg2                       0
comp_pos3                       0
comp_neg3                       0
comp_pos4                       0
comp_neg4                       0
comp_pos5                       0
comp_neg5                       0
comp_pos6               0.0306674
comp_neg6                       0
comp_pos7                       0
comp_neg7                       0
comp_pos8                       0
comp_neg8                       0
comp_pos9                       0
comp_neg9                       0
comp_pos10                      0
comp_neg10                      0
comp_pos11                      0
comp_neg11                      0
comp_pos12                      0
comp_neg12                      0
comp_pos13                      0
comp_neg13                      0
z_c0_t0               1.32138e+10
p0_c0_t0              3.10239e+09
p1_c0_t0              1.05272e+08
p2_c0_t0              9.61746e+09
p3_c0_t0              3.88715e+08
diff0                           0
normdiff0                       0
z_c0_t1               1.47752e+10
p0_c0_t1              2.72276e+09
p1_c0_t1              1.18054e+08
p2_c0_t1              1.14822e+10
p3_c0_t1              4.52134e+08
diff1                           0
normdiff1                       0
z_c1_t0               1.65566e+10
p0_c1_t0               3.1681e+09
p1_c1_t0              1.36618e+08
p2_c1_t0              1.30815e+10
p3_c1_t0              1.70339e+08
diff2                           0
normdiff2                       0
z_c1_t1               1.94959e+10
p0_c1_t1              3.22474e+09
p1_c1_t1              1.94357e+08
p2_c1_t1              1.59153e+10
p3_c1_t1              1.61513e+08
diff3                           0
normdiff3                       0
z_c2_t0               7.24754e+09
p0_c2_t0              1.07022e+09
p1_c2_t0              5.51971e+07
p2_c2_t0              5.97155e+09
p3_c2_t0              1.50576e+08
diff4                           0
normdiff4                       0
z_c2_t1               7.97123e+09
p0_c2_t1              8.77483e+08
p1_c2_t1              6.45183e+07
p2_c2_t1              6.86062e+09
p3_c2_t1              1.68605e+08
diff5                           0
normdiff5                       0
z_c3_t0               1.22612e+10
p0_c3_t0              1.93628e+09
p1_c3_t0              9.43659e+07
p2_c3_t0              1.01928e+10
p3_c3_t0              4.13725e+08
diff6                 3.76018e+08
normdiff6               0.0306674
z_c3_t1               1.42798e+10
p0_c3_t1              2.21202e+09
p1_c3_t1               9.6642e+07
p2_c3_t1              1.12435e+10
p3_c3_t1              7.27645e+08
diff7                           0
normdiff7                       0
z_c4_t0               7.97197e+09
p0_c4_t0              8.54626e+08
p1_c4_t0              1.05596e+08
p2_c4_t0              6.89086e+09
p3_c4_t0              1.20886e+08
diff8                           0
normdiff8                       0
z_c4_t1                8.9819e+09
p0_c4_t1              8.92558e+08
p1_c4_t1              9.72162e+07
p2_c4_t1              7.91739e+09
p3_c4_t1              7.47361e+07
diff9                           0
normdiff9                       0
z_c5_t0               1.00642e+10
p0_c5_t0               1.5071e+09
p1_c5_t0              8.82169e+07
p2_c5_t0              8.41851e+09
p3_c5_t0              5.03208e+07
diff10                          0
normdiff10                      0
z_c5_t1                1.2016e+10
p0_c5_t1              1.11202e+09
p1_c5_t1              8.82549e+07
p2_c5_t1              1.06263e+10
p3_c5_t1              1.89425e+08
diff11                          0
normdiff11                      0
z_c6_t0               1.81204e+10
p0_c6_t0              2.75185e+09
p1_c6_t0              1.12562e+08
p2_c6_t0              1.50917e+10
p3_c6_t0              1.64267e+08
diff12                          0
normdiff12                      0
z_c6_t1               2.06345e+10
p0_c6_t1              2.98858e+09
p1_c6_t1              1.03172e+08
p2_c6_t1              1.74383e+10
p3_c6_t1              1.04478e+08
diff13                          0
normdiff13                      0
